RT is False
Default write of storage_offers_DA.csv just to have a file (but constraint should be inactive)
Reading model...
...model read.
creating competitive generators file...
...competitive generators recorded.
Loading data...
.. day-ahead data with real-time VRE data read.
Compiling instance...
...instance created.
Creating Offer Mitigation (model will solve as dispatch if TRUE)...
Solving...

Welcome to IBM(R) ILOG(R) CPLEX(R) Interactive Optimizer 12.9.0.0
  with Simplex, Mixed Integer & Barrier Optimizers
5725-A06 5725-A29 5724-Y48 5724-Y49 5724-Y54 5724-Y55 5655-Y21
Copyright IBM Corp. 1988, 2019.  All Rights Reserved.

Type 'help' for a list of available commands.
Type 'help' followed by a command name for more
information on commands.

CPLEX> Logfile 'cplex.log' closed.
Logfile 'C:\Users\llavin\Desktop\test919\logs\tmpb9_3zo5u.cplex.log' open.
CPLEX> New value for parallel optimization mode: -1
CPLEX> New value for mixed integer optimality gap tolerance: 0.01
CPLEX> New value for integrality tolerance: 1e-09
CPLEX> New value for feasibility tolerance: 0.01
CPLEX> New value for deterministic time limit in ticks: 75000
CPLEX> Problem 'C:\Users\llavin\Desktop\test919\logs\tmpx_9vg4_6.pyomo.lp' read.
Read time = 0.06 sec. (3.04 ticks)
CPLEX> Problem name         : C:\Users\llavin\Desktop\test919\logs\tmpx_9vg4_6.pyomo.lp
Objective sense      : Minimize
Variables            :   26081  [Nneg: 1,  Box: 21616,  Free: 4464]
Objective nonzeros   :    2496
Linear constraints   :   27515  [Less: 14006,  Greater: 4416,  Equal: 9093]
  Nonzeros           :   89267
  RHS nonzeros       :   12271

Variables            : Min LB: -5000.000        Max UB: 1000000.       
Objective nonzeros   : Min   : 15.73158         Max   : 124.0997       
Linear constraints   :
  Nonzeros           : Min   : 0.8500000        Max   : 3000.000       
  RHS nonzeros       : Min   : 0.008333333      Max   : 5000.000       
CPLEX> CPXPARAM_Parallel                                -1
CPXPARAM_Simplex_Tolerances_Feasibility          0.01
CPXPARAM_DetTimeLimit                            75000
CPXPARAM_MIP_Tolerances_MIPGap                   0.01
CPXPARAM_MIP_Tolerances_Integrality              1.0000000000000001e-09
Parallel mode: opportunistic, using up to 32 threads for concurrent optimization.
Tried aggregator 1 time.
LP Presolve eliminated 21353 rows and 15463 columns.
Aggregator did 771 substitutions.
Reduced LP has 5391 rows, 9847 columns, and 31810 nonzeros.
Presolve time = 0.06 sec. (30.45 ticks)
Symmetry aggregator did 5563 additional substitutions.

Iteration log . . .
Iteration:     1   Dual objective     =             0.000000
Perturbation started.
Iteration:   101   Dual objective     =             0.000000
Iteration:   331   Dual objective     =             1.211998
Iteration:   579   Dual objective     =             1.725953
Iteration:   830   Dual objective     =             1.865831
Iteration:  1025   Dual objective     =             1.978815
Iteration:  1298   Dual objective     =             2.031367
Iteration:  1555   Dual objective     =             2.063474
Iteration:  1776   Dual objective     =          2504.941803
Iteration:  2004   Dual objective     =         62081.208031
Iteration:  2199   Dual objective     =         81577.412146
Iteration:  2379   Dual objective     =         95013.997391
Iteration:  2642   Dual objective     =        102563.907667
Iteration:  3068   Dual objective     =        104675.252408
Removing perturbation.
Dual superbasis not built.
Using devex.

Primal simplex solved model.


Primal simplex - Optimal:  Objective =  1.0467309867e+05
Solution time =    0.20 sec.  Iterations = 1666 (1078)
Deterministic time = 80.08 ticks  (392.56 ticks/sec)

CPLEX> Solution written to file 'C:\Users\llavin\Desktop\test919\logs\tmpkqun4ybf.cplex.sol'.
CPLEX> Exporting results... 
...storage offer mitigation file created
Converting model to MPEC...
...converted
NOTE: initial MIP solve with only storage competitive to get feasible solution
Solving...

Welcome to IBM(R) ILOG(R) CPLEX(R) Interactive Optimizer 12.9.0.0
  with Simplex, Mixed Integer & Barrier Optimizers
5725-A06 5725-A29 5724-Y48 5724-Y49 5724-Y54 5724-Y55 5655-Y21
Copyright IBM Corp. 1988, 2019.  All Rights Reserved.

Type 'help' for a list of available commands.
Type 'help' followed by a command name for more
information on commands.

CPLEX> Logfile 'cplex.log' closed.
Logfile 'C:\Users\llavin\Desktop\test919\logs\tmp01e50jfi.cplex.log' open.
CPLEX> New value for parallel optimization mode: -1
CPLEX> New value for mixed integer optimality gap tolerance: 0.01
CPLEX> New value for integrality tolerance: 1e-09
CPLEX> New value for feasibility tolerance: 0.01
CPLEX> New value for deterministic time limit in ticks: 75000
CPLEX> Problem 'C:\Users\llavin\Desktop\test919\logs\tmp298il7ia.pyomo.lp' read.
Read time = 0.23 sec. (14.78 ticks)
CPLEX> Problem name         : C:\Users\llavin\Desktop\test919\logs\tmp298il7ia.pyomo.lp
Objective sense      : Maximize
Variables            :   53805  [Nneg: 1,  Box: 22000,  Free: 4464,
                                 Binary: 27340]
Objective nonzeros   :    8980
Linear constraints   :  123205  [Less: 41346,  Greater: 59096,  Equal: 22763]
  Nonzeros           :  291801
  RHS nonzeros       :   67491

Variables            : Min LB: -5000.000        Max UB: 1000000.       
Objective nonzeros   : Min   : 0.008333333      Max   : 753.1500       
Linear constraints   :
  Nonzeros           : Min   : 0.008333333      Max   : 1000000.       
  RHS nonzeros       : Min   : 0.008333333      Max   : 1000000.       
CPLEX> CPXPARAM_Parallel                                -1
CPXPARAM_Simplex_Tolerances_Feasibility          0.01
CPXPARAM_DetTimeLimit                            75000
CPXPARAM_MIP_Tolerances_MIPGap                   0.01
CPXPARAM_MIP_Tolerances_Integrality              1.0000000000000001e-09
Tried aggregator 3 times.
MIP Presolve eliminated 88652 rows and 18952 columns.
MIP Presolve added 3396 rows and 0 columns.
MIP Presolve modified 24888 coefficients.
Aggregator did 13000 substitutions.
Reduced MIP has 24949 rows, 21297 columns, and 71190 nonzeros.
Reduced MIP has 8409 binaries, 0 generals, 0 SOSs, and 0 indicators.
Presolve time = 0.30 sec. (173.76 ticks)
Probing fixed 384 vars, tightened 2807 bounds.
Probing time = 1.20 sec. (878.02 ticks)
Tried aggregator 2 times.
MIP Presolve eliminated 861 rows and 770 columns.
MIP Presolve modified 2192 coefficients.
Aggregator did 43 substitutions.
Reduced MIP has 24045 rows, 20484 columns, and 68569 nonzeros.
Reduced MIP has 8024 binaries, 0 generals, 0 SOSs, and 0 indicators.
Presolve time = 0.11 sec. (67.97 ticks)
Probing time = 0.05 sec. (15.62 ticks)
Clique table members: 6351.
MIP emphasis: balance optimality and feasibility.
MIP search method: dynamic search.
Parallel mode: opportunistic, using up to 32 threads.
Root relaxation solution time = 0.38 sec. (287.60 ticks)

        Nodes                                         Cuts/
   Node  Left     Objective  IInf  Best Integer    Best Bound    ItCnt     Gap

      0     0     7927.4138  1687                   7927.4138     6626         
      0     0     7927.4138    11                Flowcuts: 12     6628         
      0     0     7927.4138     9                Flowcuts: 12     6630         
      0     0     7927.4138     7                Flowcuts: 12     6632         
      0     0     7927.4138     7                Flowcuts: 12     6634         
      0    31    infeasible                         7927.4138     6787         
Elapsed time = 7.91 sec. (4721.55 ticks, tree = 0.02 MB, solutions = 0)
*    11+   28                         7923.3205     7927.4138             0.05%
*    15+   29                         7923.3205     7927.4138             0.05%
    177    72     7921.6120     1     7923.3205     7925.6217     6922    0.03%

Flow cuts applied:  9

Root node processing (before b&c):
  Real time             =    6.78 sec. (4697.21 ticks)
Parallel b&c, 32 threads:
  Real time             =    1.80 sec. (295.31 ticks)
  Sync time (average)   =    0.25 sec.
  Wait time (average)   =    0.00 sec.
                          ------------
Total (root+branch&cut) =    8.58 sec. (4992.53 ticks)

Solution pool: 3 solutions saved.

MIP - Integer optimal, tolerance (0.01/1e-06):  Objective =  7.9233205260e+03
Current MIP best bound =  7.9256217081e+03 (gap = 2.30118, 0.03%)
Solution time =    8.59 sec.  Iterations = 7317  Nodes = 185 (18)
Deterministic time = 4992.68 ticks  (580.95 ticks/sec)

CPLEX> Incumbent solution written to file 'C:\Users\llavin\Desktop\test919\logs\tmp8_hws126.cplex.sol'.
CPLEX> NOTE: no warmstart specified for MIP iteration, default behavior is true
NOTE: resolving with all competitive generators using storage-only solution to warmstart
Solving...

Welcome to IBM(R) ILOG(R) CPLEX(R) Interactive Optimizer 12.9.0.0
  with Simplex, Mixed Integer & Barrier Optimizers
5725-A06 5725-A29 5724-Y48 5724-Y49 5724-Y54 5724-Y55 5655-Y21
Copyright IBM Corp. 1988, 2019.  All Rights Reserved.

Type 'help' for a list of available commands.
Type 'help' followed by a command name for more
information on commands.

CPLEX> Logfile 'cplex.log' closed.
Logfile 'C:\Users\llavin\Desktop\test919\logs\tmpr7nbzwux.cplex.log' open.
CPLEX> New value for parallel optimization mode: -1
CPLEX> New value for mixed integer optimality gap tolerance: 0.01
CPLEX> New value for integrality tolerance: 1e-09
CPLEX> New value for feasibility tolerance: 0.01
CPLEX> New value for deterministic time limit in ticks: 75000
CPLEX> Problem 'C:\Users\llavin\Desktop\test919\logs\tmptfjvjttn.pyomo.lp' read.
Read time = 0.23 sec. (14.81 ticks)
CPLEX> MIP start file 'C:\Users\llavin\Desktop\test919\logs\tmpbpu_ugri.cplex.mst' read.
CPLEX> Problem name         : C:\Users\llavin\Desktop\test919\logs\tmptfjvjttn.pyomo.lp
Objective sense      : Maximize
Variables            :   54525  [Nneg: 1,  Box: 22720,  Free: 4464,
                                 Binary: 27340]
Objective nonzeros   :    9676
Linear constraints   :  123205  [Less: 41346,  Greater: 59096,  Equal: 22763]
  Nonzeros           :  291801
  RHS nonzeros       :   67491

Variables            : Min LB: -5000.000        Max UB: 1000000.       
Objective nonzeros   : Min   : 0.008333333      Max   : 753.1500       
Linear constraints   :
  Nonzeros           : Min   : 0.008333333      Max   : 1000000.       
  RHS nonzeros       : Min   : 0.008333333      Max   : 1000000.       
CPLEX> CPXPARAM_Parallel                                -1
CPXPARAM_Simplex_Tolerances_Feasibility          0.01
CPXPARAM_DetTimeLimit                            75000
CPXPARAM_MIP_Tolerances_MIPGap                   0.01
CPXPARAM_MIP_Tolerances_Integrality              1.0000000000000001e-09
Warning:  No solution found from 1 MIP starts.
Retaining values of one MIP start for possible repair.
Tried aggregator 3 times.
MIP Presolve eliminated 88652 rows and 19672 columns.
MIP Presolve added 3396 rows and 0 columns.
MIP Presolve modified 24888 coefficients.
Aggregator did 13000 substitutions.
Reduced MIP has 24949 rows, 21297 columns, and 71190 nonzeros.
Reduced MIP has 8409 binaries, 0 generals, 0 SOSs, and 0 indicators.
Presolve time = 0.28 sec. (174.12 ticks)
Probing fixed 384 vars, tightened 2807 bounds.
Probing time = 1.20 sec. (878.02 ticks)
Tried aggregator 2 times.
MIP Presolve eliminated 861 rows and 770 columns.
MIP Presolve modified 2192 coefficients.
Aggregator did 43 substitutions.
Reduced MIP has 24045 rows, 20484 columns, and 68569 nonzeros.
Reduced MIP has 8024 binaries, 0 generals, 0 SOSs, and 0 indicators.
Presolve time = 0.09 sec. (67.97 ticks)
Probing time = 0.05 sec. (15.62 ticks)
Clique table members: 6351.
MIP emphasis: balance optimality and feasibility.
MIP search method: dynamic search.
Parallel mode: opportunistic, using up to 32 threads.
Root relaxation solution time = 0.41 sec. (309.42 ticks)

        Nodes                                         Cuts/
   Node  Left     Objective  IInf  Best Integer    Best Bound    ItCnt     Gap

      0     0    76141.0392  1751                  76141.0392     6695         
      0     0    74720.4239   652                   Cuts: 649     7075         
      0     0    74574.5119   545                   Cuts: 328     7224         
      0     0    74570.2712   490                   Cuts: 172     7301         
      0     0    74229.8055   456                    Cuts: 91     7352         
      0     0    74229.8055   425                    Cuts: 62     7389         
      0     0    74229.8055   416                    Cuts: 37     7418         
      0     0    72655.8043   395                    Cuts: 49     7469         
      0     0    72655.8043   381                    Cuts: 36     7487         
      0     0    72655.8043   377                    Cuts: 24     7495         
      0     0    72655.8043   377                    Cuts: 21     7502         
Repair heuristic found nothing.
      0    10    infeasible                          Cuts: 10     7908         
Elapsed time = 11.23 sec. (7073.10 ticks, tree = 0.02 MB, solutions = 0)
    437    96    50234.9964   338                  62231.5827     9357         
    898   172    39471.4720   348                  62231.5827    10038         
   1376   610    infeasible                        62231.5827    13930         
   2086  1006    27552.3905   317                  62231.5827    18247         
   2893  1095    32325.5461   325                  62231.5827    19613         
   3740  1311    19393.5688   302                  62231.5827    23363         
   4551  3233    25343.8830   287                  62231.5827    34782         
   5481  2649    30812.1573   268                  62231.5827    32417         
   6561  3345    19884.3730   245                  62231.5827    34959         
*  9976+ 1829                        31589.6784    62231.5827            97.00%
Elapsed time = 28.09 sec. (9928.63 ticks, tree = 22.32 MB, solutions = 6)
* 12178  7610      integral     0    34948.7427    62231.5827    36922   78.07%
* 12281  1813      integral     0    41979.8654    62231.5827    37211   48.24%

Clique cuts applied:  23
Cover cuts applied:  5
Implied bound cuts applied:  248
Flow cuts applied:  1241
Mixed integer rounding cuts applied:  1806
Gomory fractional cuts applied:  52

Root node processing (before b&c):
  Real time             =   10.09 sec. (7065.94 ticks)
Parallel b&c, 32 threads:
  Real time             =   23.70 sec. (6410.03 ticks)
  Sync time (average)   =    0.68 sec.
  Wait time (average)   =    0.00 sec.
                          ------------
Total (root+branch&cut) =   33.80 sec. (13475.96 ticks)

Solution pool: 12 solutions saved.

MIP - Integer optimal, tolerance (0.01/1e-06):  Objective =  4.1979865395e+04
Current MIP best bound =  4.2288780882e+04 (gap = 308.915, 0.74%)
Solution time =   33.81 sec.  Iterations = 46904  Nodes = 12382 (1024)
Deterministic time = 13476.12 ticks  (398.55 ticks/sec)

CPLEX> Incumbent solution written to file 'C:\Users\llavin\Desktop\test919\logs\tmp01cx8399.cplex.sol'.
CPLEX> Exporting results... 
